(set-logic QF_BV)

(declare-const __ESBMC_ptr_obj_start_0 (_ BitVec 64))

(declare-const __ESBMC_ptr_obj_end_0 (_ BitVec 64))

(declare-const __ESBMC_ptr_obj_start_1 (_ BitVec 64))

(declare-const __ESBMC_ptr_obj_end_1 (_ BitVec 64))

(declare-const |smt_conv::__ESBMC_ptr_addr_range_0..start0| (_ BitVec 64))

(declare-const |smt_conv::__ESBMC_ptr_addr_range_0..end0| (_ BitVec 64))

(declare-const |smt_conv::__ESBMC_ptr_addr_range_1..start0| (_ BitVec 64))

(declare-const |smt_conv::__ESBMC_ptr_addr_range_1..end0| (_ BitVec 64))

(declare-const |smt_conv::smt_conv::collate_array_vals::3..start0| (_ BitVec 64))

(declare-const |smt_conv::smt_conv::collate_array_vals::3..end0| (_ BitVec 64))

(declare-const |smt_conv::smt_conv::collate_array_vals::4..start0| (_ BitVec 64))

(declare-const |smt_conv::smt_conv::collate_array_vals::4..end0| (_ BitVec 64))

(declare-const |smt_conv::smt_conv::collate_array_vals::7..start0| (_ BitVec 64))

(declare-const |smt_conv::smt_conv::collate_array_vals::7..end0| (_ BitVec 64))

(declare-const |c:@F@main::$tmp::return_value$___VERIFIER_nondet_uint$1?1!0&0#1| (_ BitVec 32))

(declare-const |nondet$symex::nondet59| (_ BitVec 32))

(declare-const |c:in-de42.c@424@F@main@n?1!0&0#1| (_ BitVec 32))

(declare-const |c:in-de42.c@469@F@main@x?1!0&0#2| (_ BitVec 32))

(declare-const |nondet$symex::nondet61| (_ BitVec 32))

(declare-const |goto_symex::guard?0!0&0#1| (_ BitVec 1))

(declare-const |c:in-de42.c@469@F@main@x?1!0&0#3| (_ BitVec 32))

(declare-const |goto_symex::guard?0!0&0#2| (_ BitVec 1))

(declare-const |c:in-de42.c@469@F@main@x?1!0&0#4| (_ BitVec 32))

(declare-const |goto_symex::guard?0!0&0#3| (_ BitVec 1))

(declare-const |c:in-de42.c@469@F@main@x?1!0&0#5| (_ BitVec 32))

(declare-const |goto_symex::guard?0!0&0#4| (_ BitVec 1))

(declare-const |c:in-de42.c@469@F@main@x?1!0&0#6| (_ BitVec 32))

(declare-const |goto_symex::guard?0!0&0#5| (_ BitVec 1))

(declare-const |c:in-de42.c@469@F@main@x?1!0&0#7| (_ BitVec 32))

(declare-const |goto_symex::guard?0!0&0#6| (_ BitVec 1))

(declare-const |c:in-de42.c@469@F@main@x?1!0&0#8| (_ BitVec 32))

(declare-const |goto_symex::guard?0!0&0#7| (_ BitVec 1))

(declare-const |c:in-de42.c@469@F@main@z?1!0&0#2| (_ BitVec 32))

(declare-const |nondet$symex::nondet62| (_ BitVec 32))

(declare-const |goto_symex::guard?0!0&0#8| (_ BitVec 1))

(declare-const |c:in-de42.c@469@F@main@z?1!0&0#3| (_ BitVec 32))

(declare-const |goto_symex::guard?0!0&0#9| (_ BitVec 1))

(declare-const |c:in-de42.c@469@F@main@z?1!0&0#4| (_ BitVec 32))

(declare-const |goto_symex::guard?0!0&0#10| (_ BitVec 1))

(declare-const |c:in-de42.c@469@F@main@z?1!0&0#5| (_ BitVec 32))

(declare-const |goto_symex::guard?0!0&0#11| (_ BitVec 1))

(declare-const |c:in-de42.c@469@F@main@z?1!0&0#6| (_ BitVec 32))

(declare-const |goto_symex::guard?0!0&0#12| (_ BitVec 1))

(declare-const |c:in-de42.c@469@F@main@z?1!0&0#7| (_ BitVec 32))

(declare-const |goto_symex::guard?0!0&0#13| (_ BitVec 1))

(declare-const |c:in-de42.c@469@F@main@z?1!0&0#8| (_ BitVec 32))

(declare-const |goto_symex::guard?0!0&0#14| (_ BitVec 1))

(declare-const |c:in-de42.c@469@F@main@y?1!0&0#17| (_ BitVec 32))

(declare-const |nondet$symex::nondet65| (_ BitVec 32))

(declare-const |goto_symex::guard?0!0&0#15| (_ BitVec 1))

(declare-const |c:in-de42.c@469@F@main@y?1!0&0#18| (_ BitVec 32))

(declare-const |goto_symex::guard?0!0&0#16| (_ BitVec 1))

(declare-const |c:in-de42.c@469@F@main@y?1!0&0#19| (_ BitVec 32))

(declare-const |goto_symex::guard?0!0&0#17| (_ BitVec 1))

(declare-const |c:in-de42.c@469@F@main@y?1!0&0#20| (_ BitVec 32))

(declare-const |goto_symex::guard?0!0&0#18| (_ BitVec 1))

(declare-const |c:in-de42.c@469@F@main@y?1!0&0#21| (_ BitVec 32))

(declare-const |goto_symex::guard?0!0&0#19| (_ BitVec 1))

(declare-const |c:in-de42.c@469@F@main@y?1!0&0#22| (_ BitVec 32))

(declare-const |goto_symex::guard?0!0&0#20| (_ BitVec 1))

(declare-const |c:in-de42.c@469@F@main@y?1!0&0#23| (_ BitVec 32))

(declare-const |goto_symex::guard?0!0&0#21| (_ BitVec 1))

(declare-const |c:in-de42.c@469@F@main@y?1!0&0#24| (_ BitVec 32))

(declare-const |c:in-de42.c@469@F@main@y?1!0&0#25| (_ BitVec 32))

(declare-const |c:in-de42.c@469@F@main@y?1!0&0#26| (_ BitVec 32))

(declare-const |c:in-de42.c@469@F@main@y?1!0&0#27| (_ BitVec 32))

(declare-const |c:in-de42.c@469@F@main@y?1!0&0#28| (_ BitVec 32))

(declare-const |c:in-de42.c@469@F@main@y?1!0&0#29| (_ BitVec 32))

(declare-const |c:in-de42.c@469@F@main@y?1!0&0#30| (_ BitVec 32))

(declare-const |c:in-de42.c@469@F@main@y?1!0&0#31| (_ BitVec 32))

(declare-const |c:in-de42.c@469@F@main@z?1!0&0#32| (_ BitVec 32))

(declare-const |nondet$symex::nondet66| (_ BitVec 32))

(declare-const |c:in-de42.c@469@F@main@x?1!0&0#32| (_ BitVec 32))

(declare-const |nondet$symex::nondet67| (_ BitVec 32))

(declare-const |goto_symex::guard?0!0&0#22| (_ BitVec 1))

(declare-const |c:in-de42.c@469@F@main@x?1!0&0#33| (_ BitVec 32))

(declare-const |c:in-de42.c@469@F@main@z?1!0&0#33| (_ BitVec 32))

(declare-const |goto_symex::guard?0!0&0#23| (_ BitVec 1))

(declare-const |c:in-de42.c@469@F@main@x?1!0&0#34| (_ BitVec 32))

(declare-const |c:in-de42.c@469@F@main@z?1!0&0#34| (_ BitVec 32))

(declare-const |goto_symex::guard?0!0&0#24| (_ BitVec 1))

(declare-const |c:in-de42.c@469@F@main@x?1!0&0#35| (_ BitVec 32))

(declare-const |c:in-de42.c@469@F@main@z?1!0&0#35| (_ BitVec 32))

(declare-const |goto_symex::guard?0!0&0#25| (_ BitVec 1))

(declare-const |c:in-de42.c@469@F@main@x?1!0&0#36| (_ BitVec 32))

(declare-const |c:in-de42.c@469@F@main@z?1!0&0#36| (_ BitVec 32))

(declare-const |goto_symex::guard?0!0&0#26| (_ BitVec 1))

(declare-const |c:in-de42.c@469@F@main@x?1!0&0#37| (_ BitVec 32))

(declare-const |c:in-de42.c@469@F@main@z?1!0&0#37| (_ BitVec 32))

(declare-const |goto_symex::guard?0!0&0#27| (_ BitVec 1))

(declare-const |c:in-de42.c@469@F@main@x?1!0&0#38| (_ BitVec 32))

(declare-const |c:in-de42.c@469@F@main@z?1!0&0#38| (_ BitVec 32))

(declare-const |goto_symex::guard?0!0&0#28| (_ BitVec 1))

(declare-const |c:in-de42.c@469@F@main@z?1!0&0#39| (_ BitVec 32))

(declare-const |c:in-de42.c@469@F@main@z?1!0&0#40| (_ BitVec 32))

(declare-const |c:in-de42.c@469@F@main@z?1!0&0#41| (_ BitVec 32))

(declare-const |c:in-de42.c@469@F@main@z?1!0&0#42| (_ BitVec 32))

(declare-const |c:in-de42.c@469@F@main@z?1!0&0#43| (_ BitVec 32))

(declare-const |c:in-de42.c@469@F@main@z?1!0&0#44| (_ BitVec 32))

(declare-const |c:in-de42.c@469@F@main@z?1!0&0#45| (_ BitVec 32))

(declare-const |c:in-de42.c@469@F@main@z?1!0&0#46| (_ BitVec 32))

(declare-const |c:in-de42.c@327@F@__VERIFIER_assert@cond?1!0&0#1| (_ BitVec 32))

(declare-const |goto_symex::guard?0!0&0#29| (_ BitVec 1))

(declare-const |execution_statet::guard_exec?0!0| (_ BitVec 1))

(define-fun $e1 () Bool 

 (= #b00000000000000000000000000000000 |c:in-de42.c@469@F@main@x?1!0&0#2|))

(define-fun $e2 () Bool 

 (= #b00000000000000000000000000000000 |c:in-de42.c@469@F@main@x?1!0&0#3|))

(define-fun $e3 () (_ BitVec 1) 

 (bvand |goto_symex::guard?0!0&0#1| |goto_symex::guard?0!0&0#2|))

(define-fun $e4 () Bool 

 (= #b00000000000000000000000000000000 |c:in-de42.c@469@F@main@x?1!0&0#4|))

(define-fun $e5 () (_ BitVec 1) 

 (bvand $e3 |goto_symex::guard?0!0&0#3|))

(define-fun $e6 () Bool 

 (= #b00000000000000000000000000000000 |c:in-de42.c@469@F@main@x?1!0&0#5|))

(define-fun $e7 () (_ BitVec 1) 

 (bvand $e5 |goto_symex::guard?0!0&0#4|))

(define-fun $e8 () Bool 

 (= #b00000000000000000000000000000000 |c:in-de42.c@469@F@main@x?1!0&0#6|))

(define-fun $e9 () (_ BitVec 1) 

 (bvand $e7 |goto_symex::guard?0!0&0#5|))

(define-fun $e10 () Bool 

 (= #b00000000000000000000000000000000 |c:in-de42.c@469@F@main@x?1!0&0#7|))

(define-fun $e11 () (_ BitVec 1) 

 (bvand $e9 |goto_symex::guard?0!0&0#6|))

(define-fun $e12 () Bool 

 (= #b00000000000000000000000000000000 |c:in-de42.c@469@F@main@x?1!0&0#8|))

(define-fun $e13 () Bool 

 (= #b00000000000000000000000000000000 |c:in-de42.c@469@F@main@z?1!0&0#2|))

(define-fun $e14 () Bool 

 (= #b00000000000000000000000000000000 |c:in-de42.c@469@F@main@z?1!0&0#3|))

(define-fun $e15 () (_ BitVec 1) 

 (bvand |goto_symex::guard?0!0&0#8| |goto_symex::guard?0!0&0#9|))

(define-fun $e16 () Bool 

 (= #b00000000000000000000000000000000 |c:in-de42.c@469@F@main@z?1!0&0#4|))

(define-fun $e17 () (_ BitVec 1) 

 (bvand $e15 |goto_symex::guard?0!0&0#10|))

(define-fun $e18 () Bool 

 (= #b00000000000000000000000000000000 |c:in-de42.c@469@F@main@z?1!0&0#5|))

(define-fun $e19 () (_ BitVec 1) 

 (bvand $e17 |goto_symex::guard?0!0&0#11|))

(define-fun $e20 () Bool 

 (= #b00000000000000000000000000000000 |c:in-de42.c@469@F@main@z?1!0&0#6|))

(define-fun $e21 () (_ BitVec 1) 

 (bvand $e19 |goto_symex::guard?0!0&0#12|))

(define-fun $e22 () Bool 

 (= #b00000000000000000000000000000000 |c:in-de42.c@469@F@main@z?1!0&0#7|))

(define-fun $e23 () (_ BitVec 1) 

 (bvand $e21 |goto_symex::guard?0!0&0#13|))

(define-fun $e24 () Bool 

 (= #b00000000000000000000000000000000 |c:in-de42.c@469@F@main@z?1!0&0#8|))

(define-fun $e25 () Bool 

 (= #b00000000000000000000000000000000 |c:in-de42.c@469@F@main@y?1!0&0#17|))

(define-fun $e26 () Bool 

 (= #b00000000000000000000000000000000 |c:in-de42.c@469@F@main@y?1!0&0#18|))

(define-fun $e27 () (_ BitVec 1) 

 (bvand |goto_symex::guard?0!0&0#15| |goto_symex::guard?0!0&0#16|))

(define-fun $e28 () Bool 

 (= #b00000000000000000000000000000000 |c:in-de42.c@469@F@main@y?1!0&0#19|))

(define-fun $e29 () (_ BitVec 1) 

 (bvand $e27 |goto_symex::guard?0!0&0#17|))

(define-fun $e30 () Bool 

 (= #b00000000000000000000000000000000 |c:in-de42.c@469@F@main@y?1!0&0#20|))

(define-fun $e31 () (_ BitVec 1) 

 (bvand $e29 |goto_symex::guard?0!0&0#18|))

(define-fun $e32 () Bool 

 (= #b00000000000000000000000000000000 |c:in-de42.c@469@F@main@y?1!0&0#21|))

(define-fun $e33 () (_ BitVec 1) 

 (bvand $e31 |goto_symex::guard?0!0&0#19|))

(define-fun $e34 () Bool 

 (= #b00000000000000000000000000000000 |c:in-de42.c@469@F@main@y?1!0&0#22|))

(define-fun $e35 () (_ BitVec 1) 

 (bvand $e33 |goto_symex::guard?0!0&0#20|))

(define-fun $e36 () Bool 

 (= #b00000000000000000000000000000000 |c:in-de42.c@469@F@main@y?1!0&0#23|))

(define-fun $e37 () Bool 

 (= #b00000000000000000000000000000000 |c:in-de42.c@469@F@main@x?1!0&0#32|))

(define-fun $e38 () Bool 

 (= #b00000000000000000000000000000000 |c:in-de42.c@469@F@main@y?1!0&0#31|))

(define-fun $e39 () Bool 

 (= #b00000000000000000000000000000000 |c:in-de42.c@469@F@main@x?1!0&0#33|))

(define-fun $e40 () (_ BitVec 1) 

 (bvand |goto_symex::guard?0!0&0#22| |goto_symex::guard?0!0&0#23|))

(define-fun $e41 () Bool 

 (= #b00000000000000000000000000000000 |c:in-de42.c@469@F@main@x?1!0&0#34|))

(define-fun $e42 () (_ BitVec 1) 

 (bvand $e40 |goto_symex::guard?0!0&0#24|))

(define-fun $e43 () Bool 

 (= #b00000000000000000000000000000000 |c:in-de42.c@469@F@main@x?1!0&0#35|))

(define-fun $e44 () (_ BitVec 1) 

 (bvand $e42 |goto_symex::guard?0!0&0#25|))

(define-fun $e45 () Bool 

 (= #b00000000000000000000000000000000 |c:in-de42.c@469@F@main@x?1!0&0#36|))

(define-fun $e46 () (_ BitVec 1) 

 (bvand $e44 |goto_symex::guard?0!0&0#26|))

(define-fun $e47 () Bool 

 (= #b00000000000000000000000000000000 |c:in-de42.c@469@F@main@x?1!0&0#37|))

(define-fun $e48 () (_ BitVec 1) 

 (bvand $e46 |goto_symex::guard?0!0&0#27|))

(define-fun $e49 () Bool 

 (= #b00000000000000000000000000000000 |c:in-de42.c@469@F@main@x?1!0&0#38|))

(define-fun $e50 () Bool 

 (= #b00000000000000000000000000000000 |c:in-de42.c@327@F@__VERIFIER_assert@cond?1!0&0#1|))

(assert 

 (= __ESBMC_ptr_obj_start_0 #b0000000000000000000000000000000000000000000000000000000000000000))

(assert 

 (= #b0000000000000000000000000000000000000000000000000000000000000000 __ESBMC_ptr_obj_end_0))

(assert 

 (= __ESBMC_ptr_obj_start_1 #b0000000000000000000000000000000000000000000000000000000000000001))

(assert 

 (= #b1111111111111111111111111111111111111111111111111111111111111111 __ESBMC_ptr_obj_end_1))

(assert 

 (= __ESBMC_ptr_obj_end_0 |smt_conv::__ESBMC_ptr_addr_range_0..end0|))

(assert 

 (= __ESBMC_ptr_obj_start_0 |smt_conv::__ESBMC_ptr_addr_range_0..start0|))

(assert 

 (= __ESBMC_ptr_obj_end_1 |smt_conv::__ESBMC_ptr_addr_range_1..end0|))

(assert 

 (= __ESBMC_ptr_obj_start_1 |smt_conv::__ESBMC_ptr_addr_range_1..start0|))

(assert 

 (= |smt_conv::smt_conv::collate_array_vals::3..end0| |smt_conv::smt_conv::collate_array_vals::4..end0|))

(assert 

 (= |smt_conv::smt_conv::collate_array_vals::3..start0| |smt_conv::smt_conv::collate_array_vals::4..start0|))

(assert 

 (= __ESBMC_ptr_obj_end_0 |smt_conv::smt_conv::collate_array_vals::7..end0|))

(assert 

 (= __ESBMC_ptr_obj_start_0 |smt_conv::smt_conv::collate_array_vals::7..start0|))

(assert 

 (= |c:@F@main::$tmp::return_value$___VERIFIER_nondet_uint$1?1!0&0#1| |nondet$symex::nondet59|))

(assert 

 (= |c:@F@main::$tmp::return_value$___VERIFIER_nondet_uint$1?1!0&0#1| |c:in-de42.c@424@F@main@n?1!0&0#1|))

(assert 

 (= |c:in-de42.c@469@F@main@x?1!0&0#2| |nondet$symex::nondet61|))

(assert 

 (= 

  (bvnot 

   (ite $e1 #b1 #b0)) |goto_symex::guard?0!0&0#1|))

(assert 

 (= |c:in-de42.c@469@F@main@x?1!0&0#3| 

  (bvadd #b11111111111111111111111111111111 |c:in-de42.c@469@F@main@x?1!0&0#2|)))

(assert 

 (= |goto_symex::guard?0!0&0#2| 

  (bvnot 

   (ite $e2 #b1 #b0))))

(assert 

 (= |c:in-de42.c@469@F@main@x?1!0&0#4| 

  (bvadd #b11111111111111111111111111111111 |c:in-de42.c@469@F@main@x?1!0&0#3|)))

(assert 

 (= |goto_symex::guard?0!0&0#3| 

  (bvnot 

   (ite $e4 #b1 #b0))))

(assert 

 (= |c:in-de42.c@469@F@main@x?1!0&0#5| 

  (bvadd #b11111111111111111111111111111111 |c:in-de42.c@469@F@main@x?1!0&0#4|)))

(assert 

 (= |goto_symex::guard?0!0&0#4| 

  (bvnot 

   (ite $e6 #b1 #b0))))

(assert 

 (= |c:in-de42.c@469@F@main@x?1!0&0#6| 

  (bvadd #b11111111111111111111111111111111 |c:in-de42.c@469@F@main@x?1!0&0#5|)))

(assert 

 (= |goto_symex::guard?0!0&0#5| 

  (bvnot 

   (ite $e8 #b1 #b0))))

(assert 

 (= |c:in-de42.c@469@F@main@x?1!0&0#7| 

  (bvadd #b11111111111111111111111111111111 |c:in-de42.c@469@F@main@x?1!0&0#6|)))

(assert 

 (= |goto_symex::guard?0!0&0#6| 

  (bvnot 

   (ite $e10 #b1 #b0))))

(assert 

 (= |c:in-de42.c@469@F@main@x?1!0&0#8| 

  (bvadd #b11111111111111111111111111111111 |c:in-de42.c@469@F@main@x?1!0&0#7|)))

(assert 

 (= |goto_symex::guard?0!0&0#7| 

  (bvnot 

   (ite $e12 #b1 #b0))))

(assert 

 (= |c:in-de42.c@469@F@main@z?1!0&0#2| |nondet$symex::nondet62|))

(assert 

 (= 

  (bvnot 

   (ite $e13 #b1 #b0)) |goto_symex::guard?0!0&0#8|))

(assert 

 (= |c:in-de42.c@469@F@main@z?1!0&0#3| 

  (bvadd #b11111111111111111111111111111111 |c:in-de42.c@469@F@main@z?1!0&0#2|)))

(assert 

 (= |goto_symex::guard?0!0&0#9| 

  (bvnot 

   (ite $e14 #b1 #b0))))

(assert 

 (= |c:in-de42.c@469@F@main@z?1!0&0#4| 

  (bvadd #b11111111111111111111111111111111 |c:in-de42.c@469@F@main@z?1!0&0#3|)))

(assert 

 (= |goto_symex::guard?0!0&0#10| 

  (bvnot 

   (ite $e16 #b1 #b0))))

(assert 

 (= |c:in-de42.c@469@F@main@z?1!0&0#5| 

  (bvadd #b11111111111111111111111111111111 |c:in-de42.c@469@F@main@z?1!0&0#4|)))

(assert 

 (= |goto_symex::guard?0!0&0#11| 

  (bvnot 

   (ite $e18 #b1 #b0))))

(assert 

 (= |c:in-de42.c@469@F@main@z?1!0&0#6| 

  (bvadd #b11111111111111111111111111111111 |c:in-de42.c@469@F@main@z?1!0&0#5|)))

(assert 

 (= |goto_symex::guard?0!0&0#12| 

  (bvnot 

   (ite $e20 #b1 #b0))))

(assert 

 (= |c:in-de42.c@469@F@main@z?1!0&0#7| 

  (bvadd #b11111111111111111111111111111111 |c:in-de42.c@469@F@main@z?1!0&0#6|)))

(assert 

 (= |goto_symex::guard?0!0&0#13| 

  (bvnot 

   (ite $e22 #b1 #b0))))

(assert 

 (= |c:in-de42.c@469@F@main@z?1!0&0#8| 

  (bvadd #b11111111111111111111111111111111 |c:in-de42.c@469@F@main@z?1!0&0#7|)))

(assert 

 (= |goto_symex::guard?0!0&0#14| 

  (bvnot 

   (ite $e24 #b1 #b0))))

(assert 

 (= |c:in-de42.c@469@F@main@y?1!0&0#17| |nondet$symex::nondet65|))

(assert 

 (= 

  (bvnot 

   (ite $e25 #b1 #b0)) |goto_symex::guard?0!0&0#15|))

(assert 

 (= |c:in-de42.c@469@F@main@y?1!0&0#18| 

  (bvadd #b11111111111111111111111111111111 |c:in-de42.c@469@F@main@y?1!0&0#17|)))

(assert 

 (= |goto_symex::guard?0!0&0#16| 

  (bvnot 

   (ite $e26 #b1 #b0))))

(assert 

 (= |c:in-de42.c@469@F@main@y?1!0&0#19| 

  (bvadd #b11111111111111111111111111111111 |c:in-de42.c@469@F@main@y?1!0&0#18|)))

(assert 

 (= |goto_symex::guard?0!0&0#17| 

  (bvnot 

   (ite $e28 #b1 #b0))))

(assert 

 (= |c:in-de42.c@469@F@main@y?1!0&0#20| 

  (bvadd #b11111111111111111111111111111111 |c:in-de42.c@469@F@main@y?1!0&0#19|)))

(assert 

 (= |goto_symex::guard?0!0&0#18| 

  (bvnot 

   (ite $e30 #b1 #b0))))

(assert 

 (= |c:in-de42.c@469@F@main@y?1!0&0#21| 

  (bvadd #b11111111111111111111111111111111 |c:in-de42.c@469@F@main@y?1!0&0#20|)))

(assert 

 (= |goto_symex::guard?0!0&0#19| 

  (bvnot 

   (ite $e32 #b1 #b0))))

(assert 

 (= |c:in-de42.c@469@F@main@y?1!0&0#22| 

  (bvadd #b11111111111111111111111111111111 |c:in-de42.c@469@F@main@y?1!0&0#21|)))

(assert 

 (= |goto_symex::guard?0!0&0#20| 

  (bvnot 

   (ite $e34 #b1 #b0))))

(assert 

 (= |c:in-de42.c@469@F@main@y?1!0&0#23| 

  (bvadd #b11111111111111111111111111111111 |c:in-de42.c@469@F@main@y?1!0&0#22|)))

(assert 

 (= |goto_symex::guard?0!0&0#21| 

  (bvnot 

   (ite $e36 #b1 #b0))))

(assert 

 (= |c:in-de42.c@469@F@main@y?1!0&0#24| 

  (bvadd #b11111111111111111111111111111111 |c:in-de42.c@469@F@main@y?1!0&0#23|)))

(assert 

 (= |c:in-de42.c@469@F@main@y?1!0&0#25| 

  (ite 

   (= #b1 |goto_symex::guard?0!0&0#21|) |c:in-de42.c@469@F@main@y?1!0&0#24| |c:in-de42.c@469@F@main@y?1!0&0#23|)))

(assert 

 (= |c:in-de42.c@469@F@main@y?1!0&0#26| 

  (ite 

   (= #b1 |goto_symex::guard?0!0&0#20|) |c:in-de42.c@469@F@main@y?1!0&0#25| |c:in-de42.c@469@F@main@y?1!0&0#22|)))

(assert 

 (= |c:in-de42.c@469@F@main@y?1!0&0#27| 

  (ite 

   (= #b1 |goto_symex::guard?0!0&0#19|) |c:in-de42.c@469@F@main@y?1!0&0#26| |c:in-de42.c@469@F@main@y?1!0&0#21|)))

(assert 

 (= |c:in-de42.c@469@F@main@y?1!0&0#28| 

  (ite 

   (= #b1 |goto_symex::guard?0!0&0#18|) |c:in-de42.c@469@F@main@y?1!0&0#27| |c:in-de42.c@469@F@main@y?1!0&0#20|)))

(assert 

 (= |c:in-de42.c@469@F@main@y?1!0&0#29| 

  (ite 

   (= #b1 |goto_symex::guard?0!0&0#17|) |c:in-de42.c@469@F@main@y?1!0&0#28| |c:in-de42.c@469@F@main@y?1!0&0#19|)))

(assert 

 (= |c:in-de42.c@469@F@main@y?1!0&0#30| 

  (ite 

   (= #b1 |goto_symex::guard?0!0&0#16|) |c:in-de42.c@469@F@main@y?1!0&0#29| |c:in-de42.c@469@F@main@y?1!0&0#18|)))

(assert 

 (= |c:in-de42.c@469@F@main@y?1!0&0#31| 

  (ite 

   (= #b1 |goto_symex::guard?0!0&0#15|) |c:in-de42.c@469@F@main@y?1!0&0#30| |c:in-de42.c@469@F@main@y?1!0&0#17|)))

(assert 

 (= |c:in-de42.c@469@F@main@z?1!0&0#32| |nondet$symex::nondet66|))

(assert 

 (= |c:in-de42.c@469@F@main@x?1!0&0#32| |nondet$symex::nondet67|))

(assert 

 (= 

  (bvnot 

   (ite $e37 #b1 #b0)) |goto_symex::guard?0!0&0#22|))

(assert 

 (= |c:in-de42.c@469@F@main@x?1!0&0#33| 

  (bvadd #b11111111111111111111111111111111 |c:in-de42.c@469@F@main@x?1!0&0#32|)))

(assert 

 (= |c:in-de42.c@469@F@main@z?1!0&0#33| 

  (bvadd #b00000000000000000000000000000001 |c:in-de42.c@469@F@main@z?1!0&0#32|)))

(assert 

 (= |goto_symex::guard?0!0&0#23| 

  (bvnot 

   (ite $e39 #b1 #b0))))

(assert 

 (= |c:in-de42.c@469@F@main@x?1!0&0#34| 

  (bvadd #b11111111111111111111111111111111 |c:in-de42.c@469@F@main@x?1!0&0#33|)))

(assert 

 (= |c:in-de42.c@469@F@main@z?1!0&0#34| 

  (bvadd #b00000000000000000000000000000001 |c:in-de42.c@469@F@main@z?1!0&0#33|)))

(assert 

 (= |goto_symex::guard?0!0&0#24| 

  (bvnot 

   (ite $e41 #b1 #b0))))

(assert 

 (= |c:in-de42.c@469@F@main@x?1!0&0#35| 

  (bvadd #b11111111111111111111111111111111 |c:in-de42.c@469@F@main@x?1!0&0#34|)))

(assert 

 (= |c:in-de42.c@469@F@main@z?1!0&0#35| 

  (bvadd #b00000000000000000000000000000001 |c:in-de42.c@469@F@main@z?1!0&0#34|)))

(assert 

 (= |goto_symex::guard?0!0&0#25| 

  (bvnot 

   (ite $e43 #b1 #b0))))

(assert 

 (= |c:in-de42.c@469@F@main@x?1!0&0#36| 

  (bvadd #b11111111111111111111111111111111 |c:in-de42.c@469@F@main@x?1!0&0#35|)))

(assert 

 (= |c:in-de42.c@469@F@main@z?1!0&0#36| 

  (bvadd #b00000000000000000000000000000001 |c:in-de42.c@469@F@main@z?1!0&0#35|)))

(assert 

 (= |goto_symex::guard?0!0&0#26| 

  (bvnot 

   (ite $e45 #b1 #b0))))

(assert 

 (= |c:in-de42.c@469@F@main@x?1!0&0#37| 

  (bvadd #b11111111111111111111111111111111 |c:in-de42.c@469@F@main@x?1!0&0#36|)))

(assert 

 (= |c:in-de42.c@469@F@main@z?1!0&0#37| 

  (bvadd #b00000000000000000000000000000001 |c:in-de42.c@469@F@main@z?1!0&0#36|)))

(assert 

 (= |goto_symex::guard?0!0&0#27| 

  (bvnot 

   (ite $e47 #b1 #b0))))

(assert 

 (= |c:in-de42.c@469@F@main@x?1!0&0#38| 

  (bvadd #b11111111111111111111111111111111 |c:in-de42.c@469@F@main@x?1!0&0#37|)))

(assert 

 (= |c:in-de42.c@469@F@main@z?1!0&0#38| 

  (bvadd #b00000000000000000000000000000001 |c:in-de42.c@469@F@main@z?1!0&0#37|)))

(assert 

 (= |goto_symex::guard?0!0&0#28| 

  (bvnot 

   (ite $e49 #b1 #b0))))

(assert 

 (= |c:in-de42.c@469@F@main@z?1!0&0#39| 

  (bvadd #b00000000000000000000000000000001 |c:in-de42.c@469@F@main@z?1!0&0#38|)))

(assert 

 (= |c:in-de42.c@469@F@main@z?1!0&0#40| 

  (ite 

   (= #b1 |goto_symex::guard?0!0&0#28|) |c:in-de42.c@469@F@main@z?1!0&0#39| |c:in-de42.c@469@F@main@z?1!0&0#38|)))

(assert 

 (= |c:in-de42.c@469@F@main@z?1!0&0#41| 

  (ite 

   (= #b1 |goto_symex::guard?0!0&0#27|) |c:in-de42.c@469@F@main@z?1!0&0#40| |c:in-de42.c@469@F@main@z?1!0&0#37|)))

(assert 

 (= |c:in-de42.c@469@F@main@z?1!0&0#42| 

  (ite 

   (= #b1 |goto_symex::guard?0!0&0#26|) |c:in-de42.c@469@F@main@z?1!0&0#41| |c:in-de42.c@469@F@main@z?1!0&0#36|)))

(assert 

 (= |c:in-de42.c@469@F@main@z?1!0&0#43| 

  (ite 

   (= #b1 |goto_symex::guard?0!0&0#25|) |c:in-de42.c@469@F@main@z?1!0&0#42| |c:in-de42.c@469@F@main@z?1!0&0#35|)))

(assert 

 (= |c:in-de42.c@469@F@main@z?1!0&0#44| 

  (ite 

   (= #b1 |goto_symex::guard?0!0&0#24|) |c:in-de42.c@469@F@main@z?1!0&0#43| |c:in-de42.c@469@F@main@z?1!0&0#34|)))

(assert 

 (= |c:in-de42.c@469@F@main@z?1!0&0#45| 

  (ite 

   (= #b1 |goto_symex::guard?0!0&0#23|) |c:in-de42.c@469@F@main@z?1!0&0#44| |c:in-de42.c@469@F@main@z?1!0&0#33|)))

(assert 

 (= |c:in-de42.c@469@F@main@z?1!0&0#46| 

  (ite 

   (= #b1 |goto_symex::guard?0!0&0#22|) |c:in-de42.c@469@F@main@z?1!0&0#45| |c:in-de42.c@469@F@main@z?1!0&0#32|)))

(assert 

 (= |c:in-de42.c@327@F@__VERIFIER_assert@cond?1!0&0#1| 

  (ite 

   (= |c:in-de42.c@469@F@main@z?1!0&0#46| 

    (bvmul |c:in-de42.c@424@F@main@n?1!0&0#1| #b00000000000000000000000000000010)) #b00000000000000000000000000000001 #b00000000000000000000000000000000)))

(assert 

 (= |goto_symex::guard?0!0&0#29| 

  (ite $e50 #b1 #b0)))

(assert (= 

 (bvnot 

  (bvand |goto_symex::guard?0!0&0#29| 

   (bvnot 

    (ite $e50 #b1 #b0)))) #b1))

(assert (= 

 (bvnot 

  (bvand 

   (bvand $e48 |goto_symex::guard?0!0&0#28|) 

   (bvnot 

    (ite 

     (and 

      (not $e49) $e38) #b1 #b0)))) #b1))

(assert (= 

 (bvnot 

  (bvand $e48 

   (bvnot 

    (ite 

     (and 

      (not $e47) $e38) #b1 #b0)))) #b1))

(assert (= 

 (bvnot 

  (bvand $e46 

   (bvnot 

    (ite 

     (and 

      (not $e45) $e38) #b1 #b0)))) #b1))

(assert (= 

 (bvnot 

  (bvand $e44 

   (bvnot 

    (ite 

     (and 

      (not $e43) $e38) #b1 #b0)))) #b1))

(assert (= 

 (bvnot 

  (bvand $e42 

   (bvnot 

    (ite 

     (and 

      (not $e41) $e38) #b1 #b0)))) #b1))

(assert (= 

 (bvnot 

  (bvand $e40 

   (bvnot 

    (ite 

     (and 

      (not $e39) $e38) #b1 #b0)))) #b1))

(assert (= 

 (bvnot 

  (bvand |goto_symex::guard?0!0&0#22| 

   (bvnot 

    (ite 

     (and $e38 

      (not $e37)) #b1 #b0)))) #b1))

(assert 

 (not $e37))

(assert (= 

 (bvnot 

  (bvand 

   (ite $e36 #b1 #b0) 

   (bvand $e35 |goto_symex::guard?0!0&0#21|))) #b1))

(assert (= 

 (bvnot 

  (bvand 

   (ite $e34 #b1 #b0) $e35)) #b1))

(assert (= 

 (bvnot 

  (bvand 

   (ite $e32 #b1 #b0) $e33)) #b1))

(assert (= 

 (bvnot 

  (bvand 

   (ite $e30 #b1 #b0) $e31)) #b1))

(assert (= 

 (bvnot 

  (bvand 

   (ite $e28 #b1 #b0) $e29)) #b1))

(assert (= 

 (bvnot 

  (bvand 

   (ite $e26 #b1 #b0) $e27)) #b1))

(assert 

 (not $e25))

(assert (= 

 (bvnot 

  (bvand 

   (ite $e24 #b1 #b0) 

   (bvand $e23 |goto_symex::guard?0!0&0#14|))) #b1))

(assert (= 

 (bvnot 

  (bvand 

   (ite $e22 #b1 #b0) $e23)) #b1))

(assert (= 

 (bvnot 

  (bvand 

   (ite $e20 #b1 #b0) $e21)) #b1))

(assert (= 

 (bvnot 

  (bvand 

   (ite $e18 #b1 #b0) $e19)) #b1))

(assert (= 

 (bvnot 

  (bvand 

   (ite $e16 #b1 #b0) $e17)) #b1))

(assert (= 

 (bvnot 

  (bvand 

   (ite $e14 #b1 #b0) $e15)) #b1))

(assert 

 (not $e13))

(assert (= 

 (bvnot 

  (bvand 

   (ite $e12 #b1 #b0) 

   (bvand $e11 |goto_symex::guard?0!0&0#7|))) #b1))

(assert (= 

 (bvnot 

  (bvand 

   (ite $e10 #b1 #b0) $e11)) #b1))

(assert (= 

 (bvnot 

  (bvand 

   (ite $e8 #b1 #b0) $e9)) #b1))

(assert (= 

 (bvnot 

  (bvand 

   (ite $e6 #b1 #b0) $e7)) #b1))

(assert (= 

 (bvnot 

  (bvand 

   (ite $e4 #b1 #b0) $e5)) #b1))

(assert (= 

 (bvnot 

  (bvand 

   (ite $e2 #b1 #b0) $e3)) #b1))

(assert 

 (not $e1))

(assert (= |execution_statet::guard_exec?0!0| #b1))

(assert (= |goto_symex::guard?0!0&0#29| #b1))

(check-sat)

(exit)
